c FILE /home/rafael/Documents/HappySet/MIHS/inputs/happygen/output/graph_scale_free_k2_p0.4_v100_20241127_083800.txt
c SOURCE This is a scale-free graph formed for the happy graph colouring problem.
c DESCRIPTION It was generated using the problem generator of Rhyd Lewis
c
c GRAPH STATS
c Seed                             = 233914255
c Number of Nodes                  = 100
c Number of colours k              = 2
c Number of pre-assignments        = 40
c Number of links per new node     = 5
c Density                          = 0.0979798
c 
c The degrees of nodes 1 to 100, respectively, are as follows 
c [49, 39, 32, 30, 24, 23, 20, 20, 20, 18, 18, 17, 17, 17, 16, 14, 14, 14, 13, 13, 13, 12, 12, 12, 11, 11, 
c  10, 10, 10, 10, 9, 9, 9, 8, 8, 8, 8, 8, 8, 8, 8, 7, 7, 7, 7, 7, 7, 7, 7, 7, 7, 
c  7, 7, 7, 7, 7, 7, 6, 6, 6, 6, 6, 6, 6, 6, 6, 6, 6, 6, 6, 5, 5, 5, 5, 5, 5, 
c  5, 5, 5, 5, 5, 5, 5, 5, 5, 5, 5, 5, 5, 5, 5, 5, 5, 5, 5, 5, 5, 5, 5, 5] 
c  
p edge 100 485 2
e 1 2
e 1 3
e 1 4
e 1 6
e 1 7
e 1 8
e 1 9
e 1 10
e 1 11
e 1 12
e 1 15
e 1 16
e 1 18
e 1 20
e 1 21
e 1 22
e 1 23
e 1 25
e 1 26
e 1 28
e 1 29
e 1 30
e 1 31
e 1 32
e 1 33
e 1 34
e 1 38
e 1 39
e 1 41
e 1 42
e 1 43
e 1 52
e 1 57
e 1 58
e 1 60
e 1 63
e 1 66
e 1 67
e 1 68
e 1 71
e 1 74
e 1 76
e 1 83
e 1 87
e 1 88
e 1 90
e 1 93
e 1 99
e 1 100
e 2 3
e 2 4
e 2 5
e 2 6
e 2 7
e 2 8
e 2 9
e 2 10
e 2 11
e 2 12
e 2 14
e 2 16
e 2 18
e 2 19
e 2 23
e 2 25
e 2 26
e 2 30
e 2 31
e 2 34
e 2 35
e 2 38
e 2 39
e 2 46
e 2 47
e 2 49
e 2 55
e 2 57
e 2 62
e 2 64
e 2 74
e 2 75
e 2 77
e 2 80
e 2 81
e 2 88
e 2 91
e 2 98
e 3 4
e 3 5
e 3 6
e 3 7
e 3 9
e 3 10
e 3 12
e 3 13
e 3 16
e 3 17
e 3 19
e 3 22
e 3 23
e 3 25
e 3 26
e 3 34
e 3 37
e 3 41
e 3 43
e 3 44
e 3 45
e 3 47
e 3 50
e 3 51
e 3 53
e 3 58
e 3 62
e 3 73
e 3 83
e 3 95
e 4 5
e 4 6
e 4 7
e 4 9
e 4 10
e 4 12
e 4 13
e 4 17
e 4 18
e 4 19
e 4 25
e 4 28
e 4 31
e 4 32
e 4 33
e 4 36
e 4 39
e 4 40
e 4 45
e 4 54
e 4 57
e 4 59
e 4 67
e 4 68
e 4 72
e 4 85
e 4 94
e 5 11
e 5 12
e 5 13
e 5 17
e 5 18
e 5 21
e 5 25
e 5 29
e 5 31
e 5 34
e 5 41
e 5 48
e 5 50
e 5 51
e 5 52
e 5 61
e 5 65
e 5 71
e 5 80
e 5 84
e 5 99
e 6 7
e 6 10
e 6 11
e 6 16
e 6 18
e 6 21
e 6 23
e 6 24
e 6 25
e 6 40
e 6 50
e 6 56
e 6 58
e 6 61
e 6 66
e 6 67
e 6 86
e 6 94
e 6 97
e 7 8
e 7 14
e 7 15
e 7 19
e 7 20
e 7 35
e 7 36
e 7 42
e 7 46
e 7 62
e 7 66
e 7 77
e 7 82
e 7 87
e 7 96
e 8 10
e 8 11
e 8 13
e 8 15
e 8 16
e 8 17
e 8 24
e 8 35
e 8 41
e 8 42
e 8 44
e 8 45
e 8 48
e 8 55
e 8 76
e 8 77
e 8 78
e 9 11
e 9 14
e 9 20
e 9 27
e 9 29
e 9 31
e 9 33
e 9 35
e 9 43
e 9 47
e 9 54
e 9 72
e 9 75
e 9 84
e 9 92
e 9 96
e 10 11
e 10 17
e 10 22
e 10 26
e 10 28
e 10 29
e 10 42
e 10 51
e 10 74
e 10 75
e 10 78
e 10 89
e 11 19
e 11 25
e 11 27
e 11 43
e 11 44
e 11 47
e 11 49
e 11 59
e 11 64
e 11 72
e 11 87
e 12 27
e 12 28
e 12 46
e 12 51
e 12 68
e 12 69
e 12 71
e 12 72
e 12 73
e 12 80
e 12 86
e 12 97
e 13 16
e 13 20
e 13 27
e 13 37
e 13 52
e 13 56
e 13 59
e 13 60
e 13 65
e 13 67
e 13 71
e 13 87
e 13 88
e 14 15
e 14 19
e 14 23
e 14 37
e 14 38
e 14 45
e 14 52
e 14 56
e 14 58
e 14 60
e 14 70
e 14 77
e 14 96
e 14 98
e 15 19
e 15 46
e 15 53
e 15 61
e 15 63
e 15 68
e 15 73
e 15 76
e 15 83
e 15 85
e 15 88
e 15 99
e 16 21
e 16 23
e 16 26
e 16 46
e 16 76
e 16 79
e 16 81
e 16 92
e 17 20
e 17 22
e 17 29
e 17 33
e 17 35
e 17 49
e 17 64
e 17 79
e 17 100
e 18 34
e 18 41
e 18 42
e 18 43
e 18 53
e 18 54
e 18 57
e 18 60
e 18 69
e 19 47
e 19 48
e 19 53
e 19 62
e 19 73
e 19 74
e 20 36
e 20 39
e 20 54
e 20 59
e 20 62
e 20 65
e 20 82
e 20 100
e 21 28
e 21 30
e 21 55
e 21 61
e 21 69
e 21 91
e 21 93
e 21 97
e 21 99
e 22 25
e 22 54
e 22 66
e 22 75
e 22 80
e 22 88
e 22 95
e 22 98
e 23 24
e 23 28
e 23 49
e 23 84
e 23 92
e 23 94
e 24 25
e 24 26
e 24 53
e 24 63
e 24 64
e 24 69
e 24 74
e 24 90
e 24 96
e 25 76
e 25 80
e 26 27
e 26 33
e 26 38
e 26 55
e 26 84
e 27 32
e 27 59
e 27 70
e 27 83
e 27 93
e 28 30
e 28 36
e 28 73
e 28 85
e 29 37
e 29 58
e 29 65
e 29 89
e 29 92
e 30 38
e 30 43
e 30 51
e 30 68
e 30 83
e 30 90
e 31 32
e 31 72
e 31 79
e 31 93
e 32 39
e 32 43
e 32 78
e 32 84
e 32 89
e 33 79
e 33 86
e 33 87
e 33 89
e 34 36
e 34 44
e 34 100
e 35 45
e 35 48
e 35 71
e 36 37
e 36 52
e 36 60
e 37 50
e 37 56
e 37 89
e 38 49
e 38 63
e 38 70
e 39 63
e 39 64
e 39 100
e 40 48
e 40 50
e 40 54
e 40 85
e 40 94
e 40 95
e 41 81
e 41 90
e 41 93
e 42 44
e 42 91
e 44 55
e 44 70
e 45 92
e 45 98
e 46 50
e 46 61
e 47 56
e 47 82
e 48 60
e 48 94
e 49 65
e 49 86
e 50 77
e 51 78
e 51 82
e 52 85
e 52 96
e 53 70
e 53 91
e 54 82
e 55 57
e 55 79
e 56 81
e 56 95
e 57 90
e 57 95
e 58 97
e 59 75
e 61 97
e 62 81
e 63 86
e 64 66
e 65 67
e 66 78
e 67 91
e 68 69
e 69 98
e 70 99
n 7 1
n 8 1
n 9 2
n 12 2
n 17 1
n 22 1
n 25 1
n 32 2
n 34 1
n 36 1
n 37 1
n 40 1
n 42 1
n 43 2
n 44 1
n 45 1
n 52 1
n 56 1
n 58 2
n 59 2
n 60 1
n 61 1
n 64 1
n 65 1
n 66 1
n 67 1
n 71 2
n 76 1
n 77 1
n 83 1
n 84 2
n 85 1
n 86 2
n 87 1
n 90 2
n 91 1
n 93 1
n 98 1
n 99 2
n 100 1
